unknown
(model
; cardinality of BoundSet is 1
(declare-sort BoundSet 0)
; rep: @uc_BoundSet_0
(declare-sort UnboundSet 0)
(define-fun IsBunk ((BOUND_VARIABLE_340 BoundSet)) Bool false)
(define-fun IsSpentAllTime ((BOUND_VARIABLE_340 BoundSet)) Bool false)
(define-fun IsInLibrary ((BOUND_VARIABLE_340 BoundSet)) Bool false)
)
sat
(model
; cardinality of BoundSet is 1
(declare-sort BoundSet 0)
; rep: @uc_BoundSet_0
(declare-sort UnboundSet 0)
(define-fun IsBunk ((BOUND_VARIABLE_365 BoundSet)) Bool false)
(define-fun IsSpentAllTime ((BOUND_VARIABLE_365 BoundSet)) Bool false)
(define-fun IsInLibrary ((BOUND_VARIABLE_365 BoundSet)) Bool false)
)
